COMMENT: Africa-Subproblem of 666-city TSP (Groetschel)
14.55 28.06 32.38 31.38 33.39 34.02 34.05 35.48 35.43 36.47 22.56 36.22 36.48 34.44 32.54 32.07 31.12 31.16 29.58 30.03 24.05 19.37 15.36 13.11 13.38 15.2 9 11.36 18.06 14.4 13.28 11.51 16.46 12.39 10.23 9.31 8.3 6.18 5.19 6.41 5.33 6.08 6.29 12.22 13.31 12 11.51 12.07 6.27 6.27 0.2 3.45 3.52 4.22 0.23 -4.16 -4.18 0.04 -5.54 0.3 -3.23 -1.57 0.19 -1.17 2.01 -4.03 -6.1 -6.48 -8.48 -12.44 -11.4 -12.49 -15.25 -20.09 -17.5 -15.47 -19.49 -25.58 -15.57 -37.15 -22.59 -22.34 -26.38 -24.45 -25.45 -26.15 -29.12 -29.55 -33 -33.58 -33.55 -23.21 -18.55 -12.16 -20.1 -4.38
-23.31 -15.24 -16.54 -8 -7.35 -6.51 -4.57 -5.45 -0.43 3.03 5.3 6.37 10.11 10.46 13.11 20.04 29.54 32.18 32.33 31.15 32.53 37.14 32.32 30.13 25.21 38.53 38.5 43.09 -15.57 -17.26 -16.39 -15.35 -3.01 -8 -9.18 -13.43 -13.15 -10.47 -4.02 -1.35 -0.13 1.13 2.37 -1.31 2.07 8.3 13.1 15.03 3.24 7.27 6.44 8.47 11.31 18.35 9.27 15.17 15.18 18.16 22.25 25.12 29.22 30.04 32.25 36.49 45.2 39.4 39.11 39.17 13.14 15.47 27.28 28.13 28.17 28.36 31.03 35 34.52 32.35 -5.42 -12.3 14.31 17.06 15.1 25.55 28.1 28 26.07 30.56 27.55 25.4 18.22 43.4 47.31 49.17 57.3 55.27
2904.26 2871.06 2871.06 2871.06 2871.06 2871.06 2871.06 2871.06 2840.55 2840.55 2840.55 2840.55 2840.55 2840.55 2840.55 2840.55 2840.55 2840.55 2840.55 2840.55 2840.55 2840.55 2840.55 2840.55 2840.55 2840.55 2840.55 2840.55 2840.55 2840.55 2840.55 2840.55 2840.55 2840.55 2840.55 2840.55 2840.55 2815.9 2815.9 2815.9 2815.9 2815.9 2815.9 2815.9 2815.9 2815.9 2815.9 2815.9 2815.9 2815.9 2815.9 2815.9 2815.9 2815.9 2815.9 2815.9 2815.9 2815.9 2815.9 2815.9 2815.9 2815.9 2815.9 2815.9 2815.9 2815.9 2815.9 2815.9 2815.9 2815.9 2815.9 2815.9 2799.19 2799.19 2799.19 2799.19 2799.19 2799.19 2799.19 2799.19 2799.19 2799.19 2799.19 2799.19 2799.19 2799.19 2799.19 2799.19 2799.19 2799.19 2799.19 2799.19 2799.19 2799.19 2799.19 2799.19 2799.19 2799.19 2799.19 2799.19 2799.19 2799.19 2799.19 2799.19 2799.19 2799.19 2799.19 2799.19 2799.19 2799.19 2799.19 2799.19 2799.19 2799.19 2799.19 2799.19 2799.19 2799.19 2799.19 2799.19 2799.19 2799.19 2799.19 2799.19 2799.19 2799.19 2799.19 2799.19 2799.19 2799.19 2799.19 2799.19 2799.19 2799.19 2799.19 2799.19 2799.19 2799.19 2799.19 2799.19 2799.19 2799.19 2799.19 2799.19 2799.19 2799.19 2799.19 2799.19 2799.19 2799.19 2799.19 2799.19 2799.19 2799.19 2799.19 2799.19 2799.19 2799.19 2799.19 2799.19 2799.19 2799.19 2799.19 2799.19 2799.19 2799.19 2799.19 2799.19 2799.19 2799.19 2799.19 2799.19 2799.19 2799.19 2799.19 2799.19 2799.19 2799.19 2799.19 2799.19 2799.19 2799.19 2799.19 2799.19 2799.19 2799.19 2799.19 2799.19 2799.19 2799.19 2799.19 2799.19 2799.19 2799.19 2799.19 2799.19 2799.19 2799.19 2799.19 2799.19 2799.19 2799.19 2799.19 2799.19 2799.19 2799.19 2799.19 2799.19 2771.97 2771.97 2771.97 2771.97 2771.97 2771.97 2771.97 2771.97 2771.97 2771.97 2771.97 2771.97 2771.97 2771.97 2771.97 2771.97 2771.97 2771.97 2771.97 2771.97 2771.97 2771.97 2771.97 2771.97 2771.97 2771.97 2771.97 2771.97 2771.97 2771.97 2771.97 2771.97 2771.97 2771.97 2771.97 2771.97 2771.97 2771.97 2771.97 2771.97 2771.97 2771.97 2771.97 2771.97 2771.97 2771.97 2771.97 2771.97 2771.97 2771.97 2771.97 2771.97 2771.97 2771.97 2771.97 2771.97 2771.97 2771.97 2771.97 2771.97 2771.97 2771.97 2771.97 2771.97 2771.97 2771.97 2771.97 2771.97 2771.97 2771.97 2771.97 2771.97 2771.97 2771.97 2771.97 2771.97 2771.97 2771.97 2771.97 2771.97 2771.97 2771.97 2771.97 2771.97 2771.97 2771.97 2771.97 2771.97 2771.97 2771.97 2771.97 2771.97 2771.97 2771.97 2771.97 2771.97 2771.97 2771.97 2771.97 2771.97 2771.97 2771.97 2771.97 2771.97 2771.97 2771.97 2771.97 2771.97 2771.97 2771.97 2771.97 2771.97 2771.97 2771.97 2771.97 2771.97 2771.97 2771.97 2771.97 2771.97 2771.97 2771.97 2771.97 2771.97 2771.97 2771.97 2771.97 2771.97 2771.97 2771.97 2771.97 2771.97 2771.97 2771.97 2771.97 2771.97 2771.97 2771.97 2771.97 2771.97 2771.97 2771.97 2771.97 2771.97 2771.97 2771.97 2771.97 2771.97 2771.97 2771.97 2771.97 2771.97 2771.97 2771.97 2771.97 2771.97 2771.97 2771.97 2771.97 2771.97 2771.97 2771.97 2771.97 2771.97 2771.97 2771.97 2771.97 2771.97 2771.97 2771.97 2771.97 2771.97 2771.97 2771.97 2771.97 2754.91 2754.91 2754.91 2754.91 2754.91 2754.91 2754.91 2754.91 2754.91 2754.91 2754.91 2754.91 2754.91 2754.91 2754.91 2754.91 2754.91 2754.91 2754.91 2754.91 2754.91 2754.91 2754.91 2754.91 2754.91 2754.91 2754.91 2754.91 2754.91 2754.91 2754.91 2754.91 2754.91 2754.91 2754.91 2754.91 2754.91 2754.91 2754.91 2754.91 2754.91 2754.91 2754.91 2754.91 2754.91 2754.91 2754.91 2754.91 2754.91 2754.91 2754.91 2754.91 2754.91 2754.91 2754.91 2754.91 2754.91 2754.91 2754.91 2754.91 2754.91 2754.91 2754.91 2754.91 2754.91 2754.91 2754.91 2754.91 2754.91 2754.91 2754.91 2754.91 2754.91 2754.91 2754.91 2754.91 2754.91 2754.91 2754.91 2754.91 2754.91 2754.91 2754.91 2754.91 2754.91 2754.91 2754.91 2754.91 2754.91 2754.91 2754.91 2754.91 2754.91 2754.91 2754.91 2754.91 2754.91 2754.91 2661.51 2661.51 2661.51 2661.51 2661.51 2661.51 2661.51 2661.51 2661.51 2661.51 2661.51 2661.51 2661.51 2661.51 2661.51 2661.51 2661.51 2661.51 2661.51 2661.51 2661.51 2661.51 2661.51 2661.51 2661.51 2661.51 2661.51 2661.51 2661.51 2661.51 2661.51 2661.51 2661.51 2661.51 2661.51 2661.51 2661.51 2661.51 2661.51 2661.51 2661.51 2661.51 2661.51 2661.51 2661.51 2661.51 2661.51 2661.51 2661.51 2661.51 2661.51 2661.51 2661.51 2661.51 2661.51 2661.51 2661.51 2661.51 2661.51 2661.51 2661.51 2661.51 2661.51 2661.51 2661.51 2661.51 2661.51 2661.51 2661.51 2661.51 2661.51 2661.51 2661.51 2661.51 2661.51 2661.51 2661.51 2661.51 2661.51 2661.51 2661.51 2661.51 2661.51 2661.51 2661.51 2661.51 2661.51 2661.51 2661.51 2661.51 2661.51 2661.51 2661.51 2661.51 2661.51 2661.51 2661.51 2661.51 2661.51 2661.51 2661.51 2661.51 2661.51 2661.51 2661.51 2661.51 2661.51 2661.51 2661.51 2661.51 2661.51 2661.51 2661.51 2661.51 2661.51 2661.51 2661.51 2661.51 2661.51 2661.51 2661.51 2661.51 2661.51 2661.51 2661.51 2661.51 2661.51 2661.51 2661.51 2661.51 2661.51 2661.51 2661.51 2661.51 2661.51 2661.51 2661.51 2661.51 2661.51 2661.51 2661.51 2661.51 2661.51 2661.51 2661.51 2661.51 2661.51 2661.51 2661.51 2661.51 2661.51 2661.51 2661.51 2661.51 2661.51 2661.51 2661.51 2661.51 2661.51 2661.51 2661.51 2661.51 2661.51 2661.51 2661.51 2661.51 2661.51 2661.51 2661.51 2661.51 2661.51 2661.51 2661.51 2661.51 2661.51 2661.51 2661.51 2661.51 2661.51 2661.51 2661.51 2661.51 2661.51 2661.51 2661.51 2661.51 2661.51 2661.51 2661.51 2661.51 2661.51 2661.51 2661.51 2661.51 2661.51 2661.51 2661.51 2661.51 2661.51 2661.51 2661.51 2661.51 2661.51 2661.51 2661.51 2661.51 2661.51 2661.51 2661.51 2661.51 2661.51 2661.51 2661.51 2661.51 2661.51 2661.51 2661.51 2661.51 2661.51 2661.51 2661.51 2661.51 2661.51 2661.51 2661.51 2661.51 2661.51 2661.51 2661.51 2661.51 2661.51 2661.51 2661.51 2661.51 2661.51 2661.51 2661.51 2661.51 2661.51 2661.51 2661.51 2661.51 2661.51 2661.51 2661.51 2661.51 2661.51 2661.51 2661.51 2661.51 2661.51 2661.51 2661.51 2661.51 2661.51 2661.51 2661.51 2661.51 2661.51 2661.51 2661.51 2661.51 2661.51 2661.51 2661.51 2661.51 2661.51 2661.51 2661.51 2661.51 2661.51 2661.51 2661.51 2661.51 2661.51 2661.51 2661.51 2661.51 2661.51 2661.51 2661.51 2661.51 2661.51 2661.51 2661.51 2661.51 2661.51 2661.51 2661.51 2661.51 2661.51 2661.51 2661.51 2661.51 2661.51 2661.51 2661.51 2661.51 2661.51 2661.51 2661.51 2661.51 2661.51 2661.51 2661.51 2661.51 2661.51 2661.51 2661.51 2661.51 2661.51 2661.51 2661.51 2661.51 2661.51 2661.51 2661.51 2661.51 2661.51 2661.51 2661.51 2661.51 2661.51 2661.51 2661.51 2661.51 2661.51 2661.51 2661.51 2661.51 2661.51 2661.51 2661.51 2661.51 2661.51 2661.51 2661.51 2661.51 2661.51 2661.51 2661.51 2661.51 2661.51 2661.51 2661.51 2661.51 2661.51 2661.51 2661.51 2661.51 2661.51 2661.51 2661.51 2661.51 2661.51 2661.51 2661.51 2661.51 2661.51 2661.51 2661.51 2661.51 2661.51 2661.51 2661.51 2661.51 2661.51 2661.51 2661.51 2661.51 2661.51 2661.51 2661.51 2661.51 2661.51 2661.51 2661.51 2661.51 2661.51 2661.51 2661.51 2661.51 2661.51 2661.51 2661.51 2661.51 2661.51 2661.51 2661.51 2661.51 2661.51 2661.51 2661.51 2661.51 2661.51 2661.51 2661.51 2661.51 2661.51 2661.51 2661.51 2661.51 2661.51 2661.51 2661.51 2661.51 2661.51 2661.51 2661.51 2661.51 2661.51 2661.51 2661.51 2661.51 2661.51 2661.51 2661.51 2661.51 2661.51 2661.51 2661.51 2661.51 2661.51 2661.51 2661.51 2661.51 2661.51 2661.51 2661.51 2661.51 2661.51 2661.51 2661.51 2661.51 2661.51 2661.51 2661.51 2661.51 2661.51 2661.51 2661.51 2661.51 2661.51 2661.51 2661.51 2661.51 2661.51 2661.51 2661.51 2661.51 2661.51 2661.51 2661.51 2661.51 2661.51 2661.51 2661.51 2661.51 2661.51 2661.51 2661.51 2661.51 2661.51 2661.51 2661.51 2661.51 2661.51 2661.51 2661.51 2661.51 2661.51 2661.51 2661.51 2661.51 2661.51 2661.51 2661.51 2661.51 2661.51 2661.51 2661.51 2661.51 2661.51 2661.51 2661.51 2661.51 2661.51 2661.51 2661.51 2661.51 2661.51 2661.51 2661.51 2661.51 2661.51 2661.51 2661.51 2661.51 2661.51 2661.51 2661.51 2661.51 2661.51 2661.51 2661.51 2661.51 2661.51 2661.51 2661.51 2661.51 2661.51 2661.51 2661.51 2661.51 2661.51 2661.51 2661.51 2661.51 2661.51 2661.51 2661.51 2661.51 2661.51 2661.51 2661.51 2661.51 2661.51 2661.51 2661.51 2661.51 2661.51 2661.51 2661.51 2661.51 2661.51 2661.51 2661.51 2661.51 2661.51 2661.51 2661.51 2661.51 2661.51 2661.51 2661.51 2661.51 2661.51 2661.51 2661.51 2661.51 2661.51 2661.51 2661.51 2661.51 2661.51 2661.51 2661.51 2661.51 2661.51 2661.51 2661.51 2661.51 2661.51 2661.51 2661.51 2661.51 2661.51 2661.51 2661.51 2661.51 2661.51 2661.51 2661.51 2661.51 2661.51 2661.51 2661.51 2661.51 2661.51 2661.51 2661.51 2661.51 2661.51 2661.51 2661.51 2661.51 2661.51 2661.51 2661.51 2661.51 2661.51 2661.51 2661.51 2661.51 2661.51 2661.51 2661.51 2661.51 2661.51 2661.51 2661.51 2661.51 2661.51 2661.51 2661.51 2661.51 2661.51 2661.51 2661.51 2661.51 2661.51 2661.51 2661.51 2661.51 2661.51 2661.51 2661.51 2661.51 2661.51 2661.51 2661.51 2661.51 2661.51 2661.51 2661.51 2661.51 2661.51 2661.51 2661.51 2661.51 2661.51 2661.51 2661.51 2661.51 2661.51 2661.51 2661.51 2661.51 2661.51 2661.51 2661.51 2661.51 2661.51 2661.51 2661.51 2661.51 2661.51 2661.51 2661.51 2661.51 2661.51 2661.51 2661.51 2661.51 2661.51 2661.51 2661.51 2661.51 2661.51 2661.51 2661.51 2661.51 2661.51 2661.51 2661.51 2661.51 2661.51 2661.51 2661.51 2661.51 2661.51 2661.51 2661.51 2661.51 2661.51 2661.51 2661.51 2661.51 2661.51 2661.51 2661.51 2661.51 2661.51 2661.51 2661.51 2661.51 2661.51 2661.51 2661.51 2661.51 2661.51 2661.51 2661.51 2661.51 2661.51 2661.51 2661.51 2661.51 2661.51 2661.51 2661.51 2661.51 2661.51 2661.51 2661.51 2661.51 2661.51 2661.51 2661.51 2661.51 2661.51 2661.51 2661.51 2661.51 2661.51 2661.51 2661.51 2661.51 2661.51 2661.51 2661.51 2661.51 2661.51 2661.51 2661.51 2661.51 2661.51 2661.51 2661.51 2661.51 2661.51 2661.51 2661.51 2661.51 2661.51 2661.51 2661.51 2661.51 2661.51 2661.51 2661.51 2661.51 2661.51 2661.51 2661.51 2661.51 2661.51 2661.51 2661.51 2661.51 2661.51 2661.51 2661.51 2661.51 2661.51 2661.51 2661.51 2661.51 2661.51 2661.51 2661.51 2661.51 2661.51 2661.51 2661.51 2661.51 2661.51 2661.51 2661.51 2661.51 2661.51 2661.51 2661.51 2661.51 2661.51 2661.51 2661.51 2661.51 2661.51 2661.51 2661.51 2661.51 2661.51 2661.51 2661.51 2661.51 2661.51 2661.51 2661.51 2661.51 2661.51 2661.51 2661.51 2661.51 2661.51 2661.51 2661.51 2661.51 2661.51 2661.51 2661.51 2661.51 2661.51 2661.51 2661.51 2661.51 2661.51 2661.51 2661.51 2661.51 2661.51 2661.51 2661.51 2661.51 2661.51 2661.51 2661.51 2661.51 2661.51 2661.51 2661.51 2661.51 2661.51 2661.51 2661.51 2661.51 2661.51 2661.51 2661.51 2661.51 2661.51 2661.51 2661.51 2661.51 2661.51 2661.51 2661.51 2661.51 2661.51 2661.51 2661.51 2661.51 2661.51 2661.51 2661.51 2661.51 2661.51 2661.51 2661.51 2661.51 2661.51 2661.51 2661.51 2661.51 2661.51 2661.51 2661.51 2661.51 2661.51 2661.51 2661.51 2661.51 2661.51 2661.51 2661.51 2661.51 2661.51 2661.51 2661.51 2661.51 2661.51 2661.51 2661.51 2661.51 2661.51 2661.51 2661.51 2661.51 2661.51 2661.51 2661.51 2661.51 2661.51 2661.51 2661.51 2661.51 2661.51 2661.51 2661.51 2661.51 2661.51 2661.51 2661.51 2661.51 2661.51 2661.51 2661.51 2661.51 2661.51 2661.51 2661.51 2661.51 2661.51 2661.51 2661.51 2661.51 2661.51 2661.51 2661.51 2661.51 2661.51 2661.51 2661.51 2661.51 2661.51 2661.51 2661.51 2661.51 2661.51 2661.51 2661.51 2661.51 2661.51 2661.51 2661.51 2661.51 2661.51 2661.51 2661.51 2661.51 2661.51 2661.51 2661.51 2661.51 2661.51 2661.51 2661.51 2661.51 2661.51 2661.51 2661.51 2661.51 2661.51 2661.51 2661.51 2661.51 2661.51 2661.51 2661.51 2661.51 2661.51 2661.51 2661.51 2661.51 2661.51 2661.51 2661.51 2661.51 2661.51 2661.51 2661.51 2661.51 2661.51 2661.51 2661.51 2661.51 2661.51 2661.51 2661.51 2661.51 2661.51 2661.51 2661.51 2661.51 2661.51 2661.51 2661.51 2661.51 2661.51 2661.51 2661.51 2661.51 2661.51 2661.51 2661.51 2661.51 2661.51 2661.51 2661.51 2661.51 2661.51 2661.51 2661.51 2661.51 2661.51 2661.51 2661.51 2661.51 2661.51 2661.51 2661.51 2661.51 2661.51 2661.51 2661.51 2661.51 2661.51 2661.51 2661.51 2661.51 2661.51 2661.51 2661.51 2661.51 2661.51 2661.51 2661.51 2661.51 2661.51 2661.51 2661.51 2661.51 2661.51 2661.51 2661.51 2661.51 2661.51 2661.51 2661.51 2661.51 2661.51 2661.51 2661.51 2661.51 2661.51 2661.51 2661.51 2661.51 2661.51 2661.51 2661.51 2661.51 2661.51 2661.51 2661.51 2661.51 2661.51 2661.51 2661.51 2661.51 2661.51 2661.51 2661.51 2661.51 2661.51 2661.51 2661.51 2661.51 2661.51 2661.51 2661.51 2661.51 2661.51 2661.51 2661.51 2661.51 2661.51 2661.51 2661.51 2661.51 2661.51 2661.51 2661.51 2661.51 2661.51 2661.51 2661.51 2661.51 2661.51 2661.51 2661.51 2661.51 2661.51 2661.51 2661.51 2661.51 2661.51 2661.51 2661.51 2661.51 2661.51 2661.51 2661.51 2661.51 2661.51 2661.51 2661.51 2661.51 2661.51 2661.51 2661.51 2661.51 2661.51 2661.51 2661.51 2661.51 2661.51 2661.51 2661.51 2661.51 2661.51 2661.51 2661.51 2661.51 2661.51 2661.51 2661.51 2661.51 2661.51 2661.51 2661.51 2661.51 2661.51 2661.51 2661.51 2661.51 2661.51 2661.51 2661.51 2661.51 2661.51 2661.51 2661.51 2661.51 2661.51 2661.51 2661.51 2661.51 2661.51 2661.51 2661.51 2661.51 2661.51 2661.51 2661.51 2661.51 2661.51 2661.51 2661.51 2661.51 2661.51 2661.51 2661.51 2661.51 2661.51 2661.51 2661.51 2661.51 2661.51 2661.51 2661.51 2661.51 2661.51 2661.51 2661.51 2661.51 2661.51 2661.51 2661.51 2661.51 2661.51 2661.51 2661.51 2661.51 2661.51 2661.51 2661.51 2661.51 2661.51 2661.51 2661.51 2661.51 2661.51 2661.51 2661.51 2661.51 2661.51 2661.51 2661.51 2661.51 2661.51 2661.51 2661.51 2661.51 2661.51 2661.51 2661.51 2661.51 2661.51 2661.51 2661.51 2661.51 2661.51 2661.51 2661.51 2661.51 2661.51 2661.51 2661.51 2661.51 2661.51 2661.51 2661.51 2661.51 2661.51 2661.51 2661.51 2661.51 2661.51 2661.51 2661.51 2661.51 2661.51 2661.51 2661.51 2661.51 2661.51 2661.51 2661.51 2661.51 2661.51 2661.51 2661.51 2661.51 2661.51 2661.51 2661.51 2661.51 2661.51 2661.51 2661.51 2661.51 2661.51 2661.51 2661.51 2661.51 2661.51 2661.51 2661.51 2661.51 2661.51 2661.51 2661.51 2661.51 2661.51 2661.51 2661.51 2661.51 2661.51 2661.51 2661.51 2661.51 2661.51 2661.51 2661.51 2661.51 2661.51 2661.51 2661.51 2661.51 2661.51 2661.51 2661.51 2661.51 2661.51 2661.51 2661.51 2661.51 2661.51 2661.51 2661.51 2661.51 2661.51 2661.51 2661.51 2661.51 2661.51 2661.51 2661.51 2661.51 2661.51 2661.51 2661.51 2661.51 2661.51 2661.51 2661.51 2661.51 2661.51 2661.51 2661.51 2661.51 2661.51 2661.51 2661.51 2661.51 2661.51 2661.51 2661.51 2661.51 2661.51 2661.51 2661.51 2661.51 2661.51 2661.51 2661.51 2661.51 2661.51 2661.51 2661.51 2661.51 2661.51 2661.51 2661.51 2661.51 2661.51 2661.51 2661.51 2661.51 2661.51 2661.51 2661.51 2661.51 2661.51 2661.51 2661.51 2661.51 2661.51 2661.51 2661.51 2661.51 2661.51 2661.51 2661.51 2661.51 2661.51 2661.51 2661.51 2661.51 2661.51 2661.51 2661.51 2661.51 2661.51 2661.51 2661.51 2661.51 2661.51 2661.51 2661.51 2661.51 2661.51 2661.51 2661.51 2661.51 2661.51 2661.51 2661.51 2661.51 2661.51 2661.51 2661.51 2661.51 2661.51 2661.51 2661.51 2661.51 2661.51 2661.51 2661.51 2661.51 2661.51 2661.51 2661.51 2661.51 2661.51 2661.51 2661.51 2661.51 2661.51 2661.51 2661.51 2661.51 2661.51 2661.51 2661.51 2661.51 2661.51 2661.51 2661.51 2661.51 2661.51 2661.51 2661.51 2661.51 2661.51 2661.51 2661.51 2661.51 2661.51 2661.51 2661.51 2661.51 2661.51 2661.51 2661.51 2661.51 2661.51 2661.51 2661.51 2661.51 2661.51 2661.51 2661.51 2661.51 2661.51 2661.51 2661.51 2661.51 2661.51 2661.51 2661.51 2661.51 2661.51 2661.51 2661.51 2661.51 2661.51 2661.51 2661.51 2661.51 2661.51 2661.51 2661.51 2661.51 2661.51 2661.51 2661.51 2661.51 2661.51 2661.51 2661.51 2661.51 2661.51 2661.51 2661.51 2661.51 2661.51 2661.51 2661.51 2661.51 2661.51 2661.51 2661.51 2661.51 2661.51 2661.51 2661.51 2661.51 2661.51 2661.51 2661.51 2661.51 2661.51 2661.51 2661.51 2661.51 2661.51 2661.51 2661.51 2661.51 2661.51 2661.51 2661.51 2661.51 2661.51 2661.51 2661.51 2661.51 2661.51 2661.51 2661.51 2661.51 2661.51 2661.51 2661.51 2661.51 2661.51 2661.51 2661.51 2661.51 2661.51 2661.51 2661.51 2661.51 2661.51 2661.51 2661.51 2661.51 2661.51 2661.51 2661.51 2661.51 2661.51 2661.51 2661.51 2661.51 2661.51
44 26 66 70 33 31 57 30 60 45 96 64 13 22 29 6 8 38 55 34 19 79 46 58 17 40 39 76 35 52 81 25 56 37 11 12 14 91 87 77 86 82 78 95 75 59 1 51 15 94 93 88 48 61 74 85 50 84 63 68 27 10 7 5 21 16 69 41 36 62 18 20 2 49 83 42 43 89 71 80 47 4 32 53 23 24 3 9 90 73 72 28 67 92 65 54
29 2 3 4 5 6 7 8 9 10 12 13 14 15 16 17 20 18 19 21 25 24 23 22 26 28 27 65 96 94 95 93 92 77 76 68 67 66 64 63 62 61 60 59 71 72 73 75 74 84 86 85 78 88 87 89 90 91 83 82 81 80 79 70 69 57 56 58 54 48 47 46 50 52 53 55 51 49 43 42 41 40 39 44 45 11 33 34 35 38 37 36 32 31 30 1
